GPU_version/outputs/rc207.out
Total number of lines in the file: 110
Total number of nodes including depot: 101
Customer 1: (40, 50), Demand: 0, Time Window: [0, 960], Service Time: 0
Customer 2: (25, 85), Demand: 20, Time Window: [591, 874], Service Time: 10
Customer 3: (22, 75), Demand: 30, Time Window: [73, 350], Service Time: 10
Customer 4: (22, 85), Demand: 10, Time Window: [473, 588], Service Time: 10
Customer 5: (20, 80), Demand: 40, Time Window: [418, 913], Service Time: 10
calling MST kernel
Post Processing Route
Post 2 opt Processing Route
2-opt between 21 and 22 improved cost from 1815.94 to 1815.06
2-opt between 23 and 24 improved cost from 1864.10 to 1861.05
2-opt between 24 and 25 improved cost from 1861.05 to 1860.27
Elapsed time: 0.648243 seconds
Final Route: 
Route #1: 80 91 92 
Route #2: 94 96 54 
Route #3: 81 61 68 
Route #4: 72 41 39 42 44 43 
Route #5: 40 38 37 36 35 93 
Route #6: 71 95 84 85 51 
Route #7: 63 76 89 56 
Route #8: 64 62 67 50 34 
Route #9: 31 29 27 26 
Route #10: 28 30 32 33 
Route #11: 90 65 
Route #12: 82 99 52 86 74 87 59 97 58 77 25 
Route #13: 23 21 48 
Route #14: 18 19 49 20 22 24 
Route #15: 75 57 66 
Route #16: 83 69 98 53 88 55 100 70 60 78 
Route #17: 12 14 47 15 16 17 11 10 9 13 
Route #18: 73 79 7 6 2 8 46 4 45 
Route #19: 5 3 1 
Route #20: Total Distance: 1815.94
Final route is valid
