outputs/rc207.txt.out
filename: RC207
Vehicles: 25, Capacity: 1000
Total customers : 101
No of routes: 17
Route #1: 90 65 66
Route #2: 83 82 99 52 57 86 74 87 59 97 58 77 25
Route #3: 23 21 48
Route #4: 18 19 49 20 22 24
Route #5: 69 98 75 53 88 60 78
Route #6: 12 14 47 17 16 15 13 9 11 10
Route #7: 73 79 7 6 2 4 45 8 46
Route #8: 5 3 1 70 100 55 80 91
Route #9: 92 95 84 85 63 76 89
Route #10: 56 64 51 34 50 62
Route #11: 31 29 27 26
Route #12: 32 30 28 33
Route #13: 94 67 93
Route #14: 96 71 54
Route #15: 72 41 39 40 42 44 43
Route #16: 38 37 36 35
Route #17: 81 61 68
Cost 1696
